17	4
17	24	26	15	
0	0	0	0	0	3	2	3	4	
1	3	1	3	2	3	5	10	13	
5	2	7	6	1	3	6	9	15	
7	0	5	10	2	1	17	
2	4	2	3	7	2	12	17	
200	5	4	6	7	3	7	8	13	
250	2	6	0	7	3	16	17	17	
75	2	3	0	2	1	17	
175	3	7	7	0	1	16	
50	4	3	0	7	2	11	14	
250	9	10	3	4	1	15	
175	4	0	1	0	2	17	17	
9	0	0	3	7	1	17	
5	0	0	6	0	1	17	
5	0	2	6	2	3	17	17	17	
6	9	0	7	2	1	17	
0	0	0	0	0	0	
